NAME: cuum660.tsp
TYPE: TSP
COMMENT: User-generated TSP file
DIMENSION: 660
EDGE_WEIGHT_TYPE: EUC_2D
NODE_COORD_SECTION
1 157.0 25.0
2 51.0 463.0
3 132.0 572.0
4 573.0 37.0
5 264.0 395.0
6 207.0 545.0
7 600.0 537.0
8 630.0 295.0
9 333.0 601.0
10 295.0 357.0
11 277.0 513.0
12 553.0 372.0
13 326.0 597.0
14 347.0 629.0
15 256.0 486.0
16 180.0 105.0
17 450.0 659.0
18 599.0 601.0
19 113.0 479.0
20 279.0 478.0
21 360.0 621.0
22 391.0 37.0
23 257.0 423.0
24 580.0 497.0
25 568.0 444.0
26 130.0 104.0
27 387.0 33.0
28 26.0 299.0
29 498.0 538.0
30 566.0 616.0
31 198.0 380.0
32 1.0 103.0
33 79.0 638.0
34 635.0 632.0
35 444.0 253.0
36 434.0 92.0
37 76.0 323.0
38 574.0 349.0
39 188.0 288.0
40 566.0 514.0
41 88.0 60.0
42 658.0 229.0
43 541.0 503.0
44 333.0 321.0
45 411.0 53.0
46 508.0 429.0
47 521.0 657.0
48 545.0 622.0
49 216.0 398.0
50 327.0 658.0
51 615.0 143.0
52 109.0 585.0
53 310.0 112.0
54 27.0 401.0
55 8.0 366.0
56 650.0 315.0
57 107.0 391.0
58 500.0 92.0
59 74.0 215.0
60 269.0 646.0
61 393.0 148.0
62 392.0 423.0
63 438.0 620.0
64 82.0 535.0
65 12.0 148.0
66 227.0 415.0
67 277.0 314.0
68 509.0 47.0
69 9.0 459.0
70 410.0 320.0
71 9.0 389.0
72 202.0 31.0
73 567.0 556.0
74 584.0 246.0
75 389.0 103.0
76 83.0 589.0
77 317.0 256.0
78 405.0 64.0
79 361.0 13.0
80 558.0 146.0
81 55.0 497.0
82 469.0 522.0
83 489.0 207.0
84 232.0 440.0
85 318.0 634.0
86 11.0 114.0
87 473.0 216.0
88 240.0 515.0
89 244.0 388.0
90 226.0 435.0
91 549.0 229.0
92 624.0 193.0
93 380.0 157.0
94 73.0 251.0
95 300.0 425.0
96 238.0 392.0
97 251.0 141.0
98 475.0 604.0
99 639.0 376.0
100 393.0 51.0
101 544.0 362.0
102 429.0 388.0
103 591.0 510.0
104 285.0 446.0
105 548.0 431.0
106 591.0 359.0
107 65.0 573.0
108 228.0 591.0
109 416.0 248.0
110 193.0 25.0
111 279.0 600.0
112 560.0 98.0
113 602.0 468.0
114 258.0 25.0
115 246.0 507.0
116 575.0 253.0
117 541.0 272.0
118 402.0 581.0
119 292.0 568.0
120 156.0 98.0
121 76.0 415.0
122 268.0 601.0
123 320.0 330.0
124 401.0 649.0
125 53.0 297.0
126 558.0 248.0
127 36.0 204.0
128 394.0 45.0
129 640.0 101.0
130 594.0 622.0
131 492.0 305.0
132 143.0 637.0
133 589.0 585.0
134 380.0 266.0
135 410.0 30.0
136 520.0 470.0
137 385.0 579.0
138 391.0 467.0
139 3.0 462.0
140 210.0 170.0
141 144.0 400.0
142 110.0 333.0
143 405.0 269.0
144 438.0 111.0
145 540.0 159.0
146 89.0 144.0
147 118.0 144.0
148 82.0 617.0
149 56.0 44.0
150 289.0 361.0
151 212.0 365.0
152 313.0 436.0
153 499.0 31.0
154 600.0 542.0
155 601.0 149.0
156 261.0 187.0
157 497.0 290.0
158 584.0 222.0
159 470.0 100.0
160 25.0 611.0
161 429.0 284.0
162 638.0 41.0
163 134.0 556.0
164 86.0 53.0
165 258.0 474.0
166 47.0 54.0
167 77.0 187.0
168 513.0 151.0
169 534.0 96.0
170 36.0 437.0
171 380.0 315.0
172 151.0 162.0
173 374.0 28.0
174 633.0 178.0
175 234.0 137.0
176 88.0 24.0
177 30.0 83.0
178 316.0 228.0
179 14.0 12.0
180 583.0 609.0
181 55.0 617.0
182 369.0 70.0
183 221.0 471.0
184 617.0 647.0
185 507.0 18.0
186 506.0 377.0
187 67.0 344.0
188 218.0 451.0
189 592.0 228.0
190 588.0 619.0
191 51.0 107.0
192 488.0 176.0
193 660.0 287.0
194 585.0 596.0
195 482.0 335.0
196 34.0 342.0
197 261.0 469.0
198 659.0 461.0
199 270.0 405.0
200 510.0 640.0
201 520.0 346.0
202 45.0 345.0
203 197.0 358.0
204 634.0 50.0
205 52.0 571.0
206 487.0 342.0
207 358.0 300.0
208 374.0 98.0
209 252.0 311.0
210 604.0 120.0
211 533.0 556.0
212 530.0 331.0
213 569.0 583.0
214 181.0 286.0
215 144.0 302.0
216 355.0 312.0
217 531.0 369.0
218 254.0 130.0
219 409.0 134.0
220 475.0 542.0
221 214.0 596.0
222 571.0 345.0
223 303.0 394.0
224 632.0 246.0
225 617.0 574.0
226 513.0 594.0
227 381.0 598.0
228 214.0 21.0
229 84.0 103.0
230 307.0 652.0
231 410.0 273.0
232 319.0 397.0
233 58.0 560.0
234 32.0 278.0
235 648.0 126.0
236 95.0 333.0
237 291.0 141.0
238 538.0 635.0
239 190.0 529.0
240 512.0 81.0
241 509.0 227.0
242 269.0 564.0
243 529.0 117.0
244 96.0 519.0
245 223.0 80.0
246 498.0 512.0
247 237.0 184.0
248 304.0 250.0
249 336.0 112.0
250 130.0 242.0
251 539.0 627.0
252 433.0 165.0
253 242.0 357.0
254 84.0 476.0
255 100.0 359.0
256 537.0 72.0
257 336.0 32.0
258 466.0 534.0
259 607.0 288.0
260 177.0 10.0
261 274.0 410.0
262 466.0 65.0
263 222.0 396.0
264 386.0 622.0
265 340.0 522.0
266 63.0 309.0
267 569.0 111.0
268 227.0 486.0
269 287.0 229.0
270 490.0 18.0
271 248.0 598.0
272 213.0 379.0
273 226.0 543.0
274 8.0 420.0
275 73.0 260.0
276 224.0 523.0
277 381.0 106.0
278 317.0 490.0
279 613.0 162.0
280 143.0 161.0
281 421.0 178.0
282 409.0 504.0
283 154.0 8.0
284 271.0 647.0
285 508.0 633.0
286 134.0 175.0
287 87.0 113.0
288 340.0 470.0
289 564.0 495.0
290 455.0 581.0
291 419.0 288.0
292 586.0 360.0
293 550.0 43.0
294 121.0 654.0
295 456.0 280.0
296 183.0 4.0
297 512.0 230.0
298 6.0 385.0
299 586.0 626.0
300 375.0 337.0
301 489.0 225.0
302 605.0 215.0
303 396.0 102.0
304 151.0 417.0
305 210.0 150.0
306 326.0 201.0
307 632.0 648.0
308 361.0 200.0
309 647.0 478.0
310 88.0 250.0
311 222.0 469.0
312 408.0 379.0
313 524.0 172.0
314 240.0 292.0
315 156.0 133.0
316 378.0 639.0
317 654.0 95.0
318 136.0 244.0
319 191.0 341.0
320 480.0 466.0
321 638.0 303.0
322 304.0 205.0
323 471.0 295.0
324 45.0 325.0
325 87.0 240.0
326 208.0 290.0
327 268.0 627.0
328 406.0 213.0
329 510.0 370.0
330 283.0 49.0
331 616.0 543.0
332 139.0 58.0
333 636.0 410.0
334 618.0 329.0
335 241.0 504.0
336 518.0 625.0
337 413.0 305.0
338 81.0 463.0
339 531.0 66.0
340 49.0 207.0
341 515.0 405.0
342 578.0 565.0
343 426.0 438.0
344 211.0 573.0
345 518.0 19.0
346 269.0 619.0
347 346.0 242.0
348 127.0 562.0
349 503.0 41.0
350 296.0 88.0
351 621.0 564.0
352 206.0 91.0
353 453.0 297.0
354 495.0 335.0
355 131.0 534.0
356 434.0 103.0
357 595.0 617.0
358 353.0 230.0
359 62.0 150.0
360 153.0 263.0
361 243.0 449.0
362 203.0 287.0
363 388.0 278.0
364 271.0 384.0
365 165.0 305.0
366 456.0 53.0
367 313.0 648.0
368 191.0 469.0
369 114.0 356.0
370 484.0 110.0
371 654.0 366.0
372 531.0 159.0
373 15.0 522.0
374 311.0 183.0
375 194.0 158.0
376 553.0 374.0
377 307.0 482.0
378 454.0 382.0
379 548.0 31.0
380 497.0 487.0
381 283.0 256.0
382 550.0 574.0
383 396.0 235.0
384 392.0 121.0
385 394.0 543.0
386 552.0 599.0
387 50.0 429.0
388 37.0 527.0
389 311.0 169.0
390 156.0 160.0
391 261.0 474.0
392 95.0 451.0
393 292.0 64.0
394 358.0 541.0
395 200.0 541.0
396 467.0 452.0
397 124.0 592.0
398 155.0 531.0
399 106.0 98.0
400 394.0 155.0
401 241.0 473.0
402 227.0 225.0
403 304.0 224.0
404 20.0 384.0
405 46.0 300.0
406 437.0 495.0
407 644.0 645.0
408 593.0 635.0
409 408.0 561.0
410 166.0 163.0
411 30.0 421.0
412 616.0 5.0
413 155.0 461.0
414 53.0 39.0
415 148.0 73.0
416 534.0 44.0
417 389.0 335.0
418 208.0 81.0
419 622.0 413.0
420 188.0 563.0
421 533.0 580.0
422 274.0 265.0
423 518.0 316.0
424 542.0 22.0
425 552.0 416.0
426 129.0 141.0
427 657.0 352.0
428 24.0 170.0
429 612.0 428.0
430 334.0 627.0
431 596.0 2.0
432 249.0 48.0
433 15.0 457.0
434 284.0 485.0
435 59.0 500.0
436 457.0 585.0
437 603.0 576.0
438 200.0 488.0
439 530.0 290.0
440 330.0 352.0
441 443.0 638.0
442 629.0 392.0
443 169.0 112.0
444 564.0 54.0
445 529.0 416.0
446 648.0 343.0
447 420.0 579.0
448 401.0 549.0
449 468.0 477.0
450 356.0 199.0
451 14.0 186.0
452 646.0 105.0
453 412.0 563.0
454 358.0 311.0
455 574.0 125.0
456 584.0 415.0
457 655.0 446.0
458 125.0 456.0
459 380.0 387.0
460 505.0 72.0
461 623.0 509.0
462 491.0 562.0
463 203.0 541.0
464 276.0 426.0
465 175.0 333.0
466 266.0 499.0
467 499.0 143.0
468 310.0 366.0
469 505.0 476.0
470 480.0 562.0
471 99.0 454.0
472 385.0 335.0
473 530.0 237.0
474 4.0 634.0
475 640.0 55.0
476 442.0 473.0
477 190.0 275.0
478 633.0 281.0
479 253.0 512.0
480 187.0 59.0
481 531.0 342.0
482 202.0 553.0
483 654.0 529.0
484 110.0 615.0
485 355.0 281.0
486 458.0 602.0
487 190.0 635.0
488 1.0 226.0
489 178.0 524.0
490 578.0 607.0
491 323.0 118.0
492 638.0 556.0
493 511.0 3.0
494 186.0 596.0
495 41.0 190.0
496 361.0 63.0
497 551.0 657.0
498 518.0 135.0
499 68.0 232.0
500 189.0 133.0
501 223.0 188.0
502 201.0 48.0
503 373.0 46.0
504 541.0 86.0
505 127.0 184.0
506 584.0 436.0
507 8.0 350.0
508 562.0 354.0
509 233.0 613.0
510 250.0 556.0
511 261.0 605.0
512 450.0 92.0
513 630.0 542.0
514 478.0 373.0
515 117.0 333.0
516 118.0 651.0
517 139.0 424.0
518 445.0 528.0
519 164.0 145.0
520 83.0 428.0
521 355.0 261.0
522 60.0 559.0
523 290.0 435.0
524 569.0 357.0
525 480.0 37.0
526 79.0 591.0
527 271.0 151.0
528 46.0 601.0
529 593.0 423.0
530 378.0 35.0
531 328.0 404.0
532 332.0 189.0
533 584.0 484.0
534 652.0 227.0
535 86.0 349.0
536 144.0 502.0
537 543.0 368.0
538 52.0 133.0
539 610.0 66.0
540 496.0 518.0
541 288.0 187.0
542 152.0 547.0
543 567.0 74.0
544 436.0 650.0
545 597.0 340.0
546 596.0 581.0
547 347.0 535.0
548 451.0 448.0
549 303.0 512.0
550 495.0 112.0
551 400.0 175.0
552 535.0 449.0
553 60.0 55.0
554 76.0 143.0
555 24.0 324.0
556 14.0 547.0
557 85.0 112.0
558 30.0 4.0
559 23.0 68.0
560 176.0 293.0
561 165.0 260.0
562 470.0 524.0
563 209.0 495.0
564 222.0 645.0
565 171.0 384.0
566 649.0 565.0
567 315.0 492.0
568 254.0 660.0
569 201.0 397.0
570 648.0 131.0
571 47.0 348.0
572 382.0 603.0
573 321.0 222.0
574 477.0 563.0
575 569.0 496.0
576 114.0 600.0
577 467.0 170.0
578 455.0 424.0
579 229.0 192.0
580 165.0 391.0
581 27.0 473.0
582 555.0 447.0
583 119.0 39.0
584 346.0 491.0
585 306.0 470.0
586 641.0 4.0
587 17.0 414.0
588 238.0 103.0
589 138.0 522.0
590 487.0 379.0
591 629.0 189.0
592 316.0 489.0
593 523.0 498.0
594 297.0 370.0
595 580.0 220.0
596 172.0 540.0
597 462.0 70.0
598 546.0 6.0
599 297.0 231.0
600 97.0 165.0
601 339.0 614.0
602 453.0 657.0
603 583.0 302.0
604 540.0 325.0
605 453.0 619.0
606 493.0 592.0
607 354.0 36.0
608 536.0 126.0
609 237.0 623.0
610 534.0 529.0
611 607.0 41.0
612 206.0 2.0
613 510.0 260.0
614 1.0 203.0
615 625.0 329.0
616 608.0 289.0
617 467.0 247.0
618 548.0 311.0
619 394.0 630.0
620 487.0 644.0
621 73.0 136.0
622 609.0 635.0
623 396.0 217.0
624 190.0 158.0
625 555.0 48.0
626 266.0 203.0
627 362.0 330.0
628 399.0 498.0
629 46.0 620.0
630 167.0 275.0
631 288.0 392.0
632 606.0 45.0
633 88.0 481.0
634 604.0 336.0
635 549.0 41.0
636 4.0 659.0
637 31.0 435.0
638 493.0 606.0
639 266.0 34.0
640 292.0 66.0
641 188.0 414.0
642 427.0 38.0
643 580.0 487.0
644 609.0 535.0
645 144.0 87.0
646 405.0 6.0
647 501.0 295.0
648 560.0 454.0
649 14.0 470.0
650 26.0 229.0
651 530.0 481.0
652 369.0 406.0
653 493.0 169.0
654 324.0 56.0
655 267.0 473.0
656 288.0 136.0
657 309.0 50.0
658 422.0 526.0
659 380.0 111.0
660 60.0 221.0
EOF





